benchmarks/iscas85/c17.lp
Min : y;
E0 >= 100;
E1 >= 100;
E2 >= 100;
E3 >= 100;
E4 >= 100;
E5 - E8 >= 0;
E6 - E9 >= 0;
E8 - E0 >= 118;
E8 - E1 >= 118;
E8 - E2 >= 118;
E8 - E3 >= 118;
E9 - E1 >= 118;
E9 - E2 >= 118;
E9 - E3 >= 118;
E9 - E4 >= 118;

p0 - E0 >= 100;
p0 - E8 >= 339;
p1 - E1 >= 100;
p1 - E8 >= 339;
p1 - E9 >= 339;
p2 - E2 >= 100;
p2 - E8 >= 339;
p2 - E9 >= 339;
p3 - E3 >= 100;
p3 - E8 >= 339;
p3 - E9 >= 339;
p4 - E4 >= 100;
p4 - E9 >= 339;
p5 - E5 >= 0;
p6 - E6 >= 0;
p8 - E8 >= 361;
p8 - E5 >= 122;
p8 - E0 >= 361;
p8 - E1 >= 361;
p8 - E2 >= 361;
p8 - E3 >= 361;
p9 - E9 >= 361;
p9 - E6 >= 122;
p9 - E1 >= 361;
p9 - E2 >= 361;
p9 - E3 >= 361;
p9 - E4 >= 361;

o0 - p8 >= 217;
y - o0 + E0 >= 100;
o1 - p8 >= 217;
o1 - p9 >= 217;
y - o1 + E1 >= 100;
o2 - p8 >= 217;
o2 - p9 >= 217;
y - o2 + E2 >= 100;
o3 - p8 >= 217;
o3 - p9 >= 217;
y - o3 + E3 >= 100;
o4 - p9 >= 217;
y - o4 + E4 >= 100;
o8 - p8 >= 217;
y - o8 + E8 >= 118;
o9 - p9 >= 217;
y - o9 + E9 >= 118;

